NAME : eil51_reduced_20
TYPE : TSP
DIMENSION : 20
EDGE_WEIGHT_TYPE : EUC_2D
NODE_COORD_SECTION
36 63 69
35 62 63
3 52 64
20 57 58
28 43 67
31 37 69
29 58 48
21 62 42
22 42 57
2 49 49
26 27 68
34 61 33
16 52 41
50 56 37
8 31 62
1 37 52
9 52 33
30 58 27
32 38 46
11 42 41
EOF
